clingo version 5.8.0 (6d1efb6)
Reading from ES_hexagons.lp
Reading      : 1.350s
Preprocessing: 0.833s
Sat-Prepro   :Sat-Prepro   : S:        0/267603  Sat-Prepro   : S:     8192/267603  Sat-Prepro   : S:    16384/267603  Sat-Prepro   : S:    24576/267603  Sat-Prepro   : S:    32768/267603  Sat-Prepro   : S:    40960/267603  Sat-Prepro   : S:    49152/267603  Sat-Prepro   : S:    57344/267603  Sat-Prepro   : S:    65536/267603  Sat-Prepro   : S:    73728/267603  Sat-Prepro   : S:    81920/267603  Sat-Prepro   : S:    90112/267603  Sat-Prepro   : S:    98304/267603  Sat-Prepro   : S:   106496/267603  Sat-Prepro   : S:   114688/267603  Sat-Prepro   : S:   122880/267603  Sat-Prepro   : S:   131072/267603  Sat-Prepro   : S:   139264/267603  Sat-Prepro   : S:   147456/267603  Sat-Prepro   : S:   155648/267603  Sat-Prepro   : S:   163840/267603  Sat-Prepro   : S:   172032/267603  Sat-Prepro   : S:   180224/267603  Sat-Prepro   : S:   188416/267603  Sat-Prepro   : S:   196608/267603  Sat-Prepro   : S:   204800/267603  Sat-Prepro   : S:   212992/267603  Sat-Prepro   : S:   221184/267603  Sat-Prepro   : S:   229376/267603  Sat-Prepro   : S:   237568/267603  Sat-Prepro   : S:   245760/267603  Sat-Prepro   : S:   253952/267603  Sat-Prepro   : S:   262144/267603  Sat-Prepro   : B:        0/10402   Sat-Prepro   : B:     8192/2320    Sat-Prepro   : E:        0/10402   Sat-Prepro   : E:     8192/2210    Sat-Prepro   : B:        0/5552    Sat-Prepro   : 1.753s (ClRemoved: 57589 ClAdded: 28274 LitsStr: 0)
Solving...
------------------------------------------------------------------------------------------|
ID:T       Vars           Constraints         State            Limits            Time     |
       #free/#fixed   #problem/#learnt  #conflicts/ratio #conflict/#learnt                |
------------------------------------------------------------------------------------------|
 0:R|   6750/816    |  238977/0       |         0/0.000 |     100/40200     |      4.053s |
 0:R|   6750/816    |  238977/100     |       100/0.575 |     150/40200     |      4.349s |
 0:R|   6750/816    |  238977/250     |       251/0.499 |     225/40200     |      4.716s |
 0:R|   6750/816    |  238977/472     |       478/0.513 |     337/40200     |      5.162s |
 0:R|   6750/816    |  238977/804     |       817/0.530 |     506/40200     |      5.949s |
 0:R|   6750/816    |  238977/1303    |      1324/0.556 |     759/40200     |      6.647s |
 0:R|   6750/816    |  238977/2056    |      2085/0.575 |    1139/40200     |      7.574s |
 0:R|   6750/816    |  238977/3187    |      3225/0.601 |    1708/40200     |      8.760s |
 0:R|   6750/816    |  238977/4880    |      4933/0.611 |    2562/40200     |     10.457s |
 0:R|   6750/816    |  238977/7429    |      7495/0.636 |    3844/40200     |     13.879s |
 0:R|   6750/816    |  238977/11244   |     11341/0.653 |    5766/40200     |     18.031s |
 0:R|   6750/816    |  238977/16980   |     17107/0.664 |    8649/40200     |     24.405s |
 0:R|   6750/816    |  238977/25607   |     25757/0.676 |   12974/40200     |     34.004s |
 0:R|   6750/816    |  238977/38549   |     38732/0.692 |   19461/44220     |     49.987s |
 0:D|   6025/816    |  238977/11056   |     44415/0.695 |   13778/44220     |     57.365s |
 0:R|   6750/816    |  238977/24814   |     58193/0.697 |   29192/48642     |     72.025s |
 0:D|   4005/816    |  238977/12161   |     82077/0.717 |    5308/48642     |    103.670s |
 0:R|   6750/816    |  238977/17459   |     87386/0.720 |   43789/53506     |    111.025s |
 0:D|   6088/816    |  238977/13377   |    123481/0.717 |    7694/53506     |    159.838s |
 0:R|   6750/816    |  238977/21064   |    131177/0.719 |   65684/58856     |    171.954s |
------------------------------------------------------------------------------------------|
ID:T       Vars           Constraints         State            Limits            Time     |
       #free/#fixed   #problem/#learnt  #conflicts/ratio #conflict/#learnt                |
------------------------------------------------------------------------------------------|
 0:D|   6059/816    |  238977/14715   |    169062/0.721 |   27799/58856     |    237.640s |
 0:R|   6750/816    |  238977/42483   |    196862/0.725 |   98526/64742     |    282.320s |
 0:D|   5758/816    |  238977/16186   |    219164/0.726 |   76224/64742     |    314.885s |
 0:D|   5538/816    |  238977/16186   |    267758/0.733 |   27630/64742     |    392.815s |
 0:R|   6750/816    |  238977/43784   |    295388/0.736 |  147789/71216     |    429.481s |
 0:D|   2730/816    |  238977/17805   |    322863/0.735 |  120314/71216     |    471.158s |
 0:D|   6182/816    |  238977/17805   |    376325/0.739 |   66852/71216     |    557.419s |
 0:D|   6130/816    |  238977/17805   |    429783/0.743 |   13394/71216     |    641.431s |
 0:R|   6750/816    |  238977/31189   |    443177/0.743 |  221683/78338     |    658.365s |
 0:D|   6040/816    |  238977/19585   |    490381/0.746 |  174479/78338     |    730.632s |
 0:D|   4282/816    |  238977/19585   |    549209/0.749 |  115651/78338     |    828.041s |
 0:D|   6093/816    |  238977/19585   |    607993/0.753 |   56867/78338     |    926.797s |
 0:R|   6750/816    |  238977/76414   |    664860/0.754 |  332525/86172     |   1018.874s |
 0:D|   5874/816    |  238977/21544   |    674625/0.754 |  322760/86172     |   1036.698s |
 0:D|   6391/816    |  238977/21544   |    739314/0.753 |  258071/86172     |   1142.731s |
 0:D|   5277/816    |  238977/21544   |    803972/0.754 |  193413/86172     |   1247.804s |
 0:D|   5118/816    |  238977/21544   |    868638/0.755 |  128747/86172     |   1361.369s |
 0:D|   5946/816    |  238977/21544   |    933303/0.757 |   64082/86172     |   1470.769s |
 0:R|   6750/816    |  238977/85579   |    997387/0.758 |  498788/94789     |   1575.454s |
 0:D|   5477/816    |  238977/23698   |   1006609/0.757 |  489566/94789     |   1590.013s |
------------------------------------------------------------------------------------------|
ID:T       Vars           Constraints         State            Limits            Time     |
       #free/#fixed   #problem/#learnt  #conflicts/ratio #conflict/#learnt                |
------------------------------------------------------------------------------------------|
 0:D|   5545/816    |  238977/23698   |   1077759/0.757 |  418416/94789     |   1704.352s |
 0:D|   6210/816    |  238977/23698   |   1148873/0.758 |  347302/94789     |   1832.500s |
 0:D|   5749/816    |  238977/23698   |   1219999/0.758 |  276176/94789     |   1956.487s |
 0:D|   5706/816    |  238977/23698   |   1291126/0.758 |  205049/94789     |   2082.292s |
 0:D|   6028/816    |  238977/23698   |   1362257/0.758 |  133918/94789     |   2194.858s |
 0:D|   5795/816    |  238977/23698   |   1433379/0.759 |   62796/94789     |   2313.510s |
 0:R|   6750/816    |  238977/86473   |   1496175/0.759 |  748182/104268    |   2425.778s |
 0:D|   4471/816    |  238977/26068   |   1513988/0.759 |  730369/104268    |   2456.779s |
 0:D|   5291/816    |  238977/26068   |   1592231/0.758 |  652126/104268    |   2586.897s |
 0:D|   6399/816    |  238977/26068   |   1670472/0.758 |  573885/104268    |   2730.669s |
 0:D|   5936/816    |  238977/26068   |   1748699/0.759 |  495658/104268    |   2873.971s |
 0:D|   6350/816    |  238977/26068   |   1826935/0.760 |  417422/104268    |   3026.844s |
 0:D|   5879/816    |  238977/26068   |   1905170/0.760 |  339187/104268    |   3168.717s |
 0:D|   6071/816    |  238977/26068   |   1983400/0.761 |  260957/104268    |   3325.652s |
 0:D|   5297/816    |  238977/26068   |   2061630/0.762 |  182727/104268    |   3485.567s |
 0:D|   5551/816    |  238977/26068   |   2139856/0.762 |  104501/104268    |   3623.769s |
 0:D|   6278/816    |  238977/26068   |   2218083/0.762 |   26274/104268    |   3765.237s |
 0:R|   6750/816    |  238977/52338   |   2244358/0.762 | 1122274/114695    |   3811.297s |
 0:D|   5173/816    |  238977/28675   |   2306744/0.762 | 1059888/114695    |   3916.443s |
 0:D|   5937/816    |  238977/28674   |   2392793/0.762 |  973839/114695    |   4067.212s |
------------------------------------------------------------------------------------------|
ID:T       Vars           Constraints         State            Limits            Time     |
       #free/#fixed   #problem/#learnt  #conflicts/ratio #conflict/#learnt                |
------------------------------------------------------------------------------------------|
 0:D|   6012/816    |  238977/28675   |   2478841/0.762 |  887791/114695    |   4215.615s |
 0:D|   5883/816    |  238977/28675   |   2564887/0.762 |  801745/114695    |   4367.109s |
 0:D|   5745/816    |  238977/28674   |   2650935/0.762 |  715697/114695    |   4544.129s |
 0:D|   5721/816    |  238977/28674   |   2736995/0.762 |  629637/114695    |   4721.903s |
 0:D|   6071/816    |  238977/28675   |   2823051/0.762 |  543581/114695    |   4887.366s |
 0:D|   6230/816    |  238977/28674   |   2909095/0.762 |  457537/114695    |   5046.548s |
 0:D|   6155/816    |  238977/28674   |   2995144/0.762 |  371488/114695    |   5214.229s |
 0:D|   3994/816    |  238977/28674   |   3081197/0.762 |  285435/114695    |   5380.983s |
 0:D|   5344/816    |  238977/28674   |   3167239/0.762 |  199393/114695    |   5554.421s |
 0:D|   5239/816    |  238977/28674   |   3253278/0.763 |  113354/114695    |   5706.042s |
 0:D|   5670/816    |  238977/28674   |   3339325/0.762 |   27307/114695    |   5879.751s |
 0:R|   6750/816    |  238977/55973   |   3366632/0.762 | 1683411/126164    |   5922.734s |
 0:D|   6225/816    |  238977/31542   |   3436856/0.762 | 1613187/126164    |   6050.908s |
 0:D|   4451/816    |  238977/31542   |   3531509/0.762 | 1518534/126164    |   6218.668s |
 0:D|   5310/816    |  238977/31542   |   3626166/0.762 | 1423877/126164    |   6387.427s |
 0:D|   5860/816    |  238977/31542   |   3720811/0.762 | 1329232/126164    |   6558.104s |
 0:D|   5591/816    |  238977/31542   |   3815456/0.762 | 1234587/126164    |   6734.614s |
 0:D|   5372/816    |  238977/31542   |   3910100/0.762 | 1139943/126164    |   6917.114s |
 0:D|   6402/816    |  238977/31542   |   4004745/0.762 | 1045298/126164    |   7102.132s |
 0:D|   6179/816    |  238977/31542   |   4099395/0.762 |  950648/126164    |   7268.192s |
------------------------------------------------------------------------------------------|
ID:T       Vars           Constraints         State            Limits            Time     |
       #free/#fixed   #problem/#learnt  #conflicts/ratio #conflict/#learnt                |
------------------------------------------------------------------------------------------|
 0:D|   4435/816    |  238977/31542   |   4194037/0.762 |  856006/126164    |   7433.161s |
 0:D|   5748/816    |  238977/31542   |   4288681/0.763 |  761362/126164    |   7620.340s |
 0:D|   5639/816    |  238977/31542   |   4383325/0.763 |  666718/126164    |   7797.409s |
 0:D|   6093/816    |  238977/31542   |   4477970/0.763 |  572073/126164    |   7967.215s |
 0:D|   6291/816    |  238977/31542   |   4572602/0.763 |  477441/126164    |   8141.294s |
 0:D|   6005/816    |  238977/31542   |   4667253/0.763 |  382790/126164    |   8310.852s |
 0:D|   6511/816    |  238977/31542   |   4761896/0.763 |  288147/126164    |   8496.998s |
 0:D|   5772/816    |  238977/31542   |   4856531/0.763 |  193512/126164    |   8678.321s |
 0:D|   5858/816    |  238977/31542   |   4951184/0.763 |   98859/126164    |   8837.362s |
 0:D|   5530/816    |  238977/31542   |   5045824/0.763 |    4219/126164    |   9010.815s |
 0:R|   6750/816    |  238977/35761   |   5050043/0.763 | 2525116/138781    |   9016.628s |
 0:D|   5768/816    |  238977/34696   |   5153095/0.763 | 2422064/138781    |   9214.311s |
 0:D|   5785/816    |  238977/34696   |   5257207/0.763 | 2317952/138781    |   9408.173s |
 0:D|   5873/816    |  238977/34696   |   5361319/0.763 | 2213840/138781    |   9601.319s |
 0:D|   6023/816    |  238977/34696   |   5465427/0.763 | 2109732/138781    |   9815.071s |
 0:D|   6232/816    |  238977/34696   |   5569558/0.763 | 2005601/138781    |  10021.435s |
 0:D|   6125/816    |  238977/34696   |   5673657/0.763 | 1901502/138781    |  10242.249s |
 0:D|   6443/816    |  238977/34696   |   5777756/0.763 | 1797403/138781    |  10444.796s |
 0:D|   5739/816    |  238977/34696   |   5881861/0.763 | 1693298/138781    |  10650.137s |
 0:D|   6221/816    |  238977/34696   |   5985964/0.763 | 1589195/138781    |  10839.171s |
------------------------------------------------------------------------------------------|
ID:T       Vars           Constraints         State            Limits            Time     |
       #free/#fixed   #problem/#learnt  #conflicts/ratio #conflict/#learnt                |
------------------------------------------------------------------------------------------|
 0:D|   5608/816    |  238977/34696   |   6090067/0.763 | 1485092/138781    |  11051.404s |
 0:D|   5832/816    |  238977/34696   |   6194173/0.764 | 1380986/138781    |  11264.394s |
 0:D|   6314/816    |  238977/34696   |   6298277/0.764 | 1276882/138781    |  11493.270s |
 0:D|   5672/816    |  238977/34696   |   6402391/0.764 | 1172768/138781    |  11694.193s |
 0:D|   5589/816    |  238977/34696   |   6506500/0.764 | 1068659/138781    |  11901.029s |
 0:D|   6115/816    |  238977/34696   |   6610607/0.764 |  964552/138781    |  12103.549s |
 0:D|   5679/816    |  238977/34696   |   6714711/0.764 |  860448/138781    |  12322.730s |
 0:D|   5686/818    |  237744/34696   |   6871180/0.764 |  703979/138781    |  12618.595s |
 0:D|   5438/818    |  237744/34696   |   6975293/0.765 |  599866/138781    |  12832.945s |
 0:D|   5787/818    |  237744/34696   |   7079401/0.765 |  495758/138781    |  13031.355s |
 0:D|   4155/818    |  237744/34696   |   7183520/0.765 |  391639/138781    |  13232.673s |
 0:D|   5585/818    |  237744/34696   |   7287626/0.765 |  287533/138781    |  13457.182s |
 0:D|   5614/818    |  237744/34696   |   7391740/0.765 |  183419/138781    |  13682.559s |
 0:D|   6050/818    |  237744/34696   |   7495861/0.765 |   79298/138781    |  13891.363s |
 0:R|   6748/818    |  237744/113975  |   7575159/0.766 | 3787675/152659    |  14033.927s |
 0:D|   4973/818    |  237744/38165   |   7613857/0.766 | 3748977/152659    |  14121.104s |
 0:D|   6070/818    |  237744/38167   |   7728385/0.766 | 3634449/152659    |  14364.012s |
 0:D|   5899/818    |  237744/38166   |   7842906/0.766 | 3519928/152659    |  14605.424s |
 0:D|   5923/818    |  237744/38165   |   7957413/0.766 | 3405421/152659    |  14842.129s |
 0:D|   5471/818    |  237744/38166   |   8071934/0.766 | 3290900/152659    |  15086.689s |
------------------------------------------------------------------------------------------|
ID:T       Vars           Constraints         State            Limits            Time     |
       #free/#fixed   #problem/#learnt  #conflicts/ratio #conflict/#learnt                |
------------------------------------------------------------------------------------------|
 0:D|   5636/822    |  236502/38165   |   8286510/0.767 | 3076324/152659    |  15527.514s |
 0:D|   5475/822    |  236502/38165   |   8401046/0.767 | 2961788/152659    |  15771.930s |
 0:D|   5509/822    |  236502/38165   |   8515570/0.767 | 2847264/152659    |  16022.596s |
 0:D|   6191/824    |  235335/38166   |   8667660/0.767 | 2695174/152659    |  16334.393s |
 0:D|   5258/826    |  234460/38166   |   8827875/0.768 | 2534959/152659    |  16649.351s |
 0:E|   5769/1797   |  159177/11581   |   8923717/0.768 | 2534959/152659    |  16821.941s |
------------------------------------------------------------------------------------------|
UNSATISFIABLE

Models       : 0
Calls        : 1
Time         : 16821.941s (Solving: 16817.89s 1st Model: 0.00s Unsat: 16817.89s)
CPU Time     : 11688.849s

Choices      : 11622200
Conflicts    : 8923717  (Analyzed: 8923716)
Restarts     : 26       (Average: 343219.85 Last: 1348557 Blocked: 0)
Problems     : 1        (Average Length: 0.00 Splits: 0)
Lemmas       : 8923716  (Deleted: 8550795)
  Binary     : 54       (Ratio:   0.00%)
  Ternary    : 3386     (Ratio:   0.04%)
  Conflict   : 8923716  (Average Length:   57.1 Ratio: 100.00%) 
  Loop       : 0        (Average Length:    0.0 Ratio:   0.00%) 
  Other      : 0        (Average Length:    0.0 Ratio:   0.00%) 
Backjumps    : 8923716  (Average:  1.30 Max:  28 Sum: 11621787)
  Executed   : 8923716  (Average:  1.30 Max:  28 Sum: 11621787 Ratio: 100.00%)
  Bounded    : 0        (Average:  0.00 Max:   0 Sum:      0 Ratio:   0.00%)

Rules        : 334804  
  Choice     : 816     
Atoms        : 12620   
Bodies       : 332157  
  Count      : 1408    
Equivalences : 10729    (Atom=Atom: 1659 Body=Body: 300 Other: 8770)
Tight        : Yes
Variables    : 17198    (Eliminated: 9632 Frozen: 5980)
Constraints  : 238977   (Binary:   0.6% Ternary:  16.0% Other:  83.4%)

